solution status: optimal solution found
objective value:                                    8
x25                                                 1 	(obj:1)
x26                                                 1 	(obj:1)
x27                                                 1 	(obj:1)
x33                                                 1 	(obj:1)
x39                                                 1 	(obj:1)
x41                                                 1 	(obj:1)
x49                                                 1 	(obj:1)
x58                                                 1 	(obj:1)
$_42_z                                             16 	(obj:0)
$_62_y                                             -1 	(obj:0)
$_62_z                                             16 	(obj:0)
$_70_y                                              2 	(obj:0)
$_70_z                                             19 	(obj:0)
$_52_y                                             -1 	(obj:0)
$_52_z                                             18 	(obj:0)
$_69_y                                              6 	(obj:0)
$_69_z                                             20 	(obj:0)
$_53_y                                             -1 	(obj:0)
$_53_z                                             17 	(obj:0)
$_37_y                                              7 	(obj:0)
$_37_z                                             21 	(obj:0)
$_41_y                                             -2 	(obj:0)
$_41_z                                             17 	(obj:0)
$_38_y                                              6 	(obj:0)
$_38_z                                             21 	(obj:0)
$_63_y                                             -2 	(obj:0)
$_63_z                                             16 	(obj:0)
$_72_y                                              2 	(obj:0)
$_72_z                                             20 	(obj:0)
